100
128
47
13
20
9
17
2
12
2
22
4
1
17
39
15
44
30
17
7
15
24
27
13
25
44
19
19
64
34
16
16
33
3
23
2
4
44
1
47
44
57
59
20
7
38
7
2
45
53
43
55
40
60
4
55
47
20
5
12
1
37
43
34
8
1
51
59
42
32
5
1
56
37
50
59
1
54
1
17
50
3
3
42
33
61
39
10
62
40
2
47
48
5
35
39
37
40
4
7
4
9